c 144_3_checker_6cl.cnf
c
c field = 144
c formula set type = 3_checker_6cl
c
p cnf 6 64
280 
282 
284 
-279 
-276 
-288 
281 
283 
285 
-278 
-277 
-289 
280 
282 
284 
-289 
-278 
-290 
281 
283 
285 
-288 
-279 
-291 
282 
284 
288 
-281 
-278 
-290 
283 
285 
289 
-280 
-279 
-291 
282 
284 
288 
-291 
-280 
-292 
283 
285 
289 
-290 
-281 
-293 
284 
288 
290 
-283 
-280 
-292 
285 
289 
291 
-282 
-281 
-293 
284 
288 
290 
-293 
-282 
-294 
285 
289 
291 
-292 
-283 
-295 
288 
290 
292 
-285 
-282 
-294 
289 
291 
293 
-284 
-283 
-295 
288 
290 
292 
-295 
-284 
-296 
289 
291 
293 
-294 
-285 
-297 
196 
226 
256 
-167 
-136 
-316 
197 
227 
257 
-166 
-137 
-317 
196 
226 
256 
-317 
-166 
-346 
197 
227 
257 
-316 
-167 
-347 
226 
256 
316 
-197 
-166 
-346 
227 
257 
317 
-196 
-167 
-347 
226 
256 
316 
-347 
-196 
-376 
227 
257 
317 
-346 
-197 
-377 
256 
316 
346 
-227 
-196 
-376 
257 
317 
347 
-226 
-197 
-377 
256 
316 
346 
-377 
-226 
-406 
257 
317 
347 
-376 
-227 
-407 
316 
346 
376 
-257 
-226 
-406 
317 
347 
377 
-256 
-227 
-407 
316 
346 
376 
-407 
-256 
-436 
317 
347 
377 
-406 
-257 
-437 
190 
222 
254 
-159 
-126 
-318 
191 
223 
255 
-158 
-127 
-319 
190 
222 
254 
-319 
-158 
-350 
191 
223 
255 
-318 
-159 
-351 
222 
254 
318 
-191 
-158 
-350 
223 
255 
319 
-190 
-159 
-351 
222 
254 
318 
-351 
-190 
-382 
223 
255 
319 
-350 
-191 
-383 
254 
318 
350 
-223 
-190 
-382 
255 
319 
351 
-222 
-191 
-383 
254 
318 
350 
-383 
-222 
-414 
255 
319 
351 
-382 
-223 
-415 
318 
350 
382 
-255 
-222 
-414 
319 
351 
383 
-254 
-223 
-415 
318 
350 
382 
-415 
-254 
-446 
319 
351 
383 
-414 
-255 
-447 
202 
230 
258 
-175 
-146 
-314 
203 
231 
259 
-174 
-147 
-315 
202 
230 
258 
-315 
-174 
-342 
203 
231 
259 
-314 
-175 
-343 
230 
258 
314 
-203 
-174 
-342 
231 
259 
315 
-202 
-175 
-343 
230 
258 
314 
-343 
-202 
-370 
231 
259 
315 
-342 
-203 
-371 
258 
314 
342 
-231 
-202 
-370 
259 
315 
343 
-230 
-203 
-371 
258 
314 
342 
-371 
-230 
-398 
259 
315 
343 
-370 
-231 
-399 
314 
342 
370 
-259 
-230 
-398 
315 
343 
371 
-258 
-231 
-399 
314 
342 
370 
-399 
-258 
-426 
315 
343 
371 
-398 
-259 
-427 
